CMD:
./solvers/bin/cadical --plain --no-reduce -t 1600 ./data/cnfs//picorv32-check-p20/picorv32-check-p20.19.cnf

c --- [ banner ] -------------------------------------------------------------
c 
c CaDiCaL SAT Solver
c Copyright (c) 2016-2024
c A. Biere, M. Fleury, N. Froleyks, K. Fazekas, F. Pollitt, T. Faller
c JKU Linz, University of Freiburg, TU Wien
c 
c Version 2.1.3 5296d3d2a9bf48c154ab2acb5e44625776d821bf
c g++ (Gentoo 12.3.1_p20230526 p2) 12.3.1 20230526 -Wall -Wextra -O3 -DNDEBUG
c Sat Aug 9 07:26:21 PDT 2025 Linux cedar2.int.cedar.computecanada.ca 5.14.0-362.24.2.el9_3.x86_64 x86_64
c 
c --- [ limit ] --------------------------------------------------------------
c 
c setting time limit to 1600 seconds real time (due to '-t 1600')
c 
c --- [ parsing input ] ------------------------------------------------------
c 
c reading DIMACS file from './data/cnfs//picorv32-check-p20/picorv32-check-p20.19.cnf'
c opening file to read './data/cnfs//picorv32-check-p20/picorv32-check-p20.19.cnf'
c found 'p cnf 385261 1132498' header
c parsed 1132498 clauses in 0.24 seconds process time
c 
c --- [ options ] ------------------------------------------------------------
c 
c   --compact=false                (different from default 'true')
c   --decompose=false              (different from default 'true')
c   --deduplicate=false            (different from default 'true')
c   --elim=false                   (different from default 'true')
c   --probe=false                  (different from default 'true')
c   --reduce=false                 (different from default 'true')
c   --subsume=false                (different from default 'true')
c   --ternary=false                (different from default 'true')
c   --transred=false               (different from default 'true')
c   --vivify=false                 (different from default 'true')
c 
c --- [ solving ] ------------------------------------------------------------
c 
c time measured in process time since initialization
c 
c  seconds   reductions  redundant   irredundant
c          MB    restarts       trail        variables
c           level   conflicts       glue           remaining
c 
c *  0.24 178  0 0   0    0    0  0% 0 1097927 368524 96%
c {  0.32 183  0 0   0    0    0  0% 0 1097927 368524 96%
c i  0.36 184 52 0   0   18   17 20% 2 1097927 368506 96%
c i  0.39 184 77 0   4  126  110 15% 3 1097927 368498 96%
c i  0.40 184 70 0   6  152  134 15% 3 1097927 368477 96%
c i  0.49 185 45 0  22  410  375 15% 3 1097927 368476 96%
c i  0.61 185 34 0  46  753  687 13% 3 1097927 368459 96%
c i  0.67 185 34 0  64  910  826 13% 3 1097927 362689 94%
c i  0.69 185 33 0  67  939  852 13% 3 1097927 362326 94%
c i  0.69 185 33 0  68  946  857 13% 3 1097927 362260 94%
c i  0.69 185 33 0  68  961  864 13% 3 1097927 361013 94%
c i  0.69 185 33 0  68  979  881 13% 3 1097927 361012 94%
c i  0.70 185 33 0  68  985  885 13% 3 1097927 360868 94%
c }  0.70 185 34 0  68 1001  899 13% 3 1097927 360868 94%
c [  0.70 185  0 0  68 1001  899  0% 0 1097927 360868 94%
c O  0.75 185 4626 0  68 1002  900 61% 3 1097927 360868 94%
c i  0.82 185 4019 0  68 1103  990 51% 4 1097927 360867 94%
c i  0.85 185 3912 0  68 1192 1072 48% 4 1097927 360866 94%
c i  0.93 185 3671 0  68 1362 1215 44% 5 1097927 360865 94%
c i  0.97 185 3560 0  68 1429 1264 42% 5 1097927 360864 94%
c 
c  seconds     reductions  redundant   irredundant
c          MB      restarts       trail        variables
c            level    conflicts       glue           remaining
c 
c i  0.99 185 3520 0  68 1458 1288 41% 5 1097927 360863 94%
c i  1.00 185 3472 0  68 1500 1321 40% 5 1097927 358981 93%
c i  1.03 185 3406 0  68 1565 1368 40% 5 1097927 358980 93%
c i  1.04 185 3380 0  68 1591 1386 39% 5 1097927 356806 93%
c i  1.05 185 3294 0  68 1620 1402 39% 5 1097927 356805 93%
c ]  1.06 185 3247 0  68 1638 1412 38% 5 1097927 356662 93%
c 0  1.06 185 3247 0  68 1638 1412 38% 5 1097927 356662 93%
c 
c --- [ result ] -------------------------------------------------------------
c 
s UNSATISFIABLE
c 
c --- [ run-time profiling ] -------------------------------------------------
c 
c process time taken by individual solving procedures
c (percentage relative to process time for solving)
c 
c         0.82   99.99% search
c         0.37   45.55% unstable
c         0.36   44.10% stable
c         0.24   29.33% parse
c         0.08   10.33% lucky
c         0.00    0.00% simplify
c   =================================
c         0.82   77.29% solve
c 
c last line shows process time for solving
c (percentage relative to total process time)
c 
c --- [ statistics ] ---------------------------------------------------------
c 
c chronological:               645        39.38 %  of conflicts
c conflicts:                  1638      2002.80    per second
c decisions:                  9760     11933.64    per second
c fixed:                     28401         7.37 %  of all variables
c learned:                    1567        95.67 %  per conflict
c learned_lits:              23831       100.00 %  learned literals
c minimized:                     0         0.00 %  learned literals
c shrunken:                   4569        19.17 %  learned literals
c minishrunken:               4387        18.41 %  learned literals
c otfs:                         34         2.08 %  of conflict
c propagations:            9754785        11.93 M  per second
c rephased:                      1      1638.00    interval
c restarts:                     68        24.09    interval
c stabilizing:                   1        38.83 %  of conflicts
c subsumed:                    135         0.01 %  of all clauses
c strengthened:                 33         0.00 %  of all clauses
c 
c seconds are measured in process time for solving
c 
c --- [ resources ] ----------------------------------------------------------
c 
c total process time since initialization:         1.06    seconds
c total real time since initialization:            1.07    seconds
c maximum resident set size of process:          184.20    MB
c 
c --- [ shutting down ] ------------------------------------------------------
c 
c exit 20
